(set-logic QF_S)
(declare-fun _var_0xINPUT_205327_() String)
(declare-fun __woorpje_diseq_pref0_() String)
(declare-fun __woorpje_diseq_suf_l0_() String)
(declare-fun __woorpje_diseq_suf_r0_() String)
(assert (=(str.++  "in0EZ6CQEf" "")(str.++ __woorpje_diseq_pref0_  "C" __woorpje_diseq_suf_l0_  "")) )
(assert (=(str.++ _var_0xINPUT_205327_  "")(str.++ __woorpje_diseq_pref0_  "f" __woorpje_diseq_suf_r0_  "")) )
(check-sat)
